c *********************************
c * Circuit generated by BenCGen
c *
c * NonRestoringArrayDivider_6
c *
c * Ports with 1 gate(s): 7
c * Ports with 2 gate(s): 217
c * Total gates: 224
c *********************************
p cnf 247 773
1 36 0
-1 -36 0
1 -35 0
36 -35 0
-1 -36 35 0
35 37 0
-35 -37 0
35 -30 0
-35 30 0
35 -31 0
-35 31 0
35 -32 0
-35 32 0
35 -33 0
-35 33 0
35 -34 0
-35 34 0
37 12 -45 0
-37 12 45 0
37 -12 45 0
-37 -12 -45 0
6 45 -46 0
-6 45 46 0
6 -45 46 0
-6 -45 -46 0
46 37 -38 0
-46 37 38 0
46 -37 38 0
-46 -37 -38 0
37 -47 0
46 -47 0
-37 -46 47 0
45 -48 0
6 -48 0
-45 -6 48 0
-47 44 0
-48 44 0
47 48 -44 0
37 13 -50 0
-37 13 50 0
37 -13 50 0
-37 -13 -50 0
7 50 -51 0
-7 50 51 0
7 -50 51 0
-7 -50 -51 0
51 44 -39 0
-51 44 39 0
51 -44 39 0
-51 -44 -39 0
44 -52 0
51 -52 0
-44 -51 52 0
50 -53 0
7 -53 0
-50 -7 53 0
-52 49 0
-53 49 0
52 53 -49 0
37 14 -55 0
-37 14 55 0
37 -14 55 0
-37 -14 -55 0
8 55 -56 0
-8 55 56 0
8 -55 56 0
-8 -55 -56 0
56 49 -40 0
-56 49 40 0
56 -49 40 0
-56 -49 -40 0
49 -57 0
56 -57 0
-49 -56 57 0
55 -58 0
8 -58 0
-55 -8 58 0
-57 54 0
-58 54 0
57 58 -54 0
37 15 -60 0
-37 15 60 0
37 -15 60 0
-37 -15 -60 0
9 60 -61 0
-9 60 61 0
9 -60 61 0
-9 -60 -61 0
61 54 -41 0
-61 54 41 0
61 -54 41 0
-61 -54 -41 0
54 -62 0
61 -62 0
-54 -61 62 0
60 -63 0
9 -63 0
-60 -9 63 0
-62 59 0
-63 59 0
62 63 -59 0
37 16 -65 0
-37 16 65 0
37 -16 65 0
-37 -16 -65 0
10 65 -66 0
-10 65 66 0
10 -65 66 0
-10 -65 -66 0
66 59 -42 0
-66 59 42 0
66 -59 42 0
-66 -59 -42 0
59 -67 0
66 -67 0
-59 -66 67 0
65 -68 0
10 -68 0
-65 -10 68 0
-67 64 0
-68 64 0
67 68 -64 0
37 17 -69 0
-37 17 69 0
37 -17 69 0
-37 -17 -69 0
11 69 -70 0
-11 69 70 0
11 -69 70 0
-11 -69 -70 0
70 64 -43 0
-70 64 43 0
70 -64 43 0
-70 -64 -43 0
64 -71 0
70 -71 0
-64 -70 71 0
69 -72 0
11 -72 0
-69 -11 72 0
-71 23 0
-72 23 0
71 72 -23 0
23 12 -80 0
-23 12 80 0
23 -12 80 0
-23 -12 -80 0
5 80 -81 0
-5 80 81 0
5 -80 81 0
-5 -80 -81 0
81 23 -73 0
-81 23 73 0
81 -23 73 0
-81 -23 -73 0
23 -82 0
81 -82 0
-23 -81 82 0
80 -83 0
5 -83 0
-80 -5 83 0
-82 79 0
-83 79 0
82 83 -79 0
23 13 -85 0
-23 13 85 0
23 -13 85 0
-23 -13 -85 0
38 85 -86 0
-38 85 86 0
38 -85 86 0
-38 -85 -86 0
86 79 -74 0
-86 79 74 0
86 -79 74 0
-86 -79 -74 0
79 -87 0
86 -87 0
-79 -86 87 0
85 -88 0
38 -88 0
-85 -38 88 0
-87 84 0
-88 84 0
87 88 -84 0
23 14 -90 0
-23 14 90 0
23 -14 90 0
-23 -14 -90 0
39 90 -91 0
-39 90 91 0
39 -90 91 0
-39 -90 -91 0
91 84 -75 0
-91 84 75 0
91 -84 75 0
-91 -84 -75 0
84 -92 0
91 -92 0
-84 -91 92 0
90 -93 0
39 -93 0
-90 -39 93 0
-92 89 0
-93 89 0
92 93 -89 0
23 15 -95 0
-23 15 95 0
23 -15 95 0
-23 -15 -95 0
40 95 -96 0
-40 95 96 0
40 -95 96 0
-40 -95 -96 0
96 89 -76 0
-96 89 76 0
96 -89 76 0
-96 -89 -76 0
89 -97 0
96 -97 0
-89 -96 97 0
95 -98 0
40 -98 0
-95 -40 98 0
-97 94 0
-98 94 0
97 98 -94 0
23 16 -100 0
-23 16 100 0
23 -16 100 0
-23 -16 -100 0
41 100 -101 0
-41 100 101 0
41 -100 101 0
-41 -100 -101 0
101 94 -77 0
-101 94 77 0
101 -94 77 0
-101 -94 -77 0
94 -102 0
101 -102 0
-94 -101 102 0
100 -103 0
41 -103 0
-100 -41 103 0
-102 99 0
-103 99 0
102 103 -99 0
23 17 -104 0
-23 17 104 0
23 -17 104 0
-23 -17 -104 0
42 104 -105 0
-42 104 105 0
42 -104 105 0
-42 -104 -105 0
105 99 -78 0
-105 99 78 0
105 -99 78 0
-105 -99 -78 0
99 -106 0
105 -106 0
-99 -105 106 0
104 -107 0
42 -107 0
-104 -42 107 0
-106 22 0
-107 22 0
106 107 -22 0
22 12 -115 0
-22 12 115 0
22 -12 115 0
-22 -12 -115 0
4 115 -116 0
-4 115 116 0
4 -115 116 0
-4 -115 -116 0
116 22 -108 0
-116 22 108 0
116 -22 108 0
-116 -22 -108 0
22 -117 0
116 -117 0
-22 -116 117 0
115 -118 0
4 -118 0
-115 -4 118 0
-117 114 0
-118 114 0
117 118 -114 0
22 13 -120 0
-22 13 120 0
22 -13 120 0
-22 -13 -120 0
73 120 -121 0
-73 120 121 0
73 -120 121 0
-73 -120 -121 0
121 114 -109 0
-121 114 109 0
121 -114 109 0
-121 -114 -109 0
114 -122 0
121 -122 0
-114 -121 122 0
120 -123 0
73 -123 0
-120 -73 123 0
-122 119 0
-123 119 0
122 123 -119 0
22 14 -125 0
-22 14 125 0
22 -14 125 0
-22 -14 -125 0
74 125 -126 0
-74 125 126 0
74 -125 126 0
-74 -125 -126 0
126 119 -110 0
-126 119 110 0
126 -119 110 0
-126 -119 -110 0
119 -127 0
126 -127 0
-119 -126 127 0
125 -128 0
74 -128 0
-125 -74 128 0
-127 124 0
-128 124 0
127 128 -124 0
22 15 -130 0
-22 15 130 0
22 -15 130 0
-22 -15 -130 0
75 130 -131 0
-75 130 131 0
75 -130 131 0
-75 -130 -131 0
131 124 -111 0
-131 124 111 0
131 -124 111 0
-131 -124 -111 0
124 -132 0
131 -132 0
-124 -131 132 0
130 -133 0
75 -133 0
-130 -75 133 0
-132 129 0
-133 129 0
132 133 -129 0
22 16 -135 0
-22 16 135 0
22 -16 135 0
-22 -16 -135 0
76 135 -136 0
-76 135 136 0
76 -135 136 0
-76 -135 -136 0
136 129 -112 0
-136 129 112 0
136 -129 112 0
-136 -129 -112 0
129 -137 0
136 -137 0
-129 -136 137 0
135 -138 0
76 -138 0
-135 -76 138 0
-137 134 0
-138 134 0
137 138 -134 0
22 17 -139 0
-22 17 139 0
22 -17 139 0
-22 -17 -139 0
77 139 -140 0
-77 139 140 0
77 -139 140 0
-77 -139 -140 0
140 134 -113 0
-140 134 113 0
140 -134 113 0
-140 -134 -113 0
134 -141 0
140 -141 0
-134 -140 141 0
139 -142 0
77 -142 0
-139 -77 142 0
-141 21 0
-142 21 0
141 142 -21 0
21 12 -150 0
-21 12 150 0
21 -12 150 0
-21 -12 -150 0
3 150 -151 0
-3 150 151 0
3 -150 151 0
-3 -150 -151 0
151 21 -143 0
-151 21 143 0
151 -21 143 0
-151 -21 -143 0
21 -152 0
151 -152 0
-21 -151 152 0
150 -153 0
3 -153 0
-150 -3 153 0
-152 149 0
-153 149 0
152 153 -149 0
21 13 -155 0
-21 13 155 0
21 -13 155 0
-21 -13 -155 0
108 155 -156 0
-108 155 156 0
108 -155 156 0
-108 -155 -156 0
156 149 -144 0
-156 149 144 0
156 -149 144 0
-156 -149 -144 0
149 -157 0
156 -157 0
-149 -156 157 0
155 -158 0
108 -158 0
-155 -108 158 0
-157 154 0
-158 154 0
157 158 -154 0
21 14 -160 0
-21 14 160 0
21 -14 160 0
-21 -14 -160 0
109 160 -161 0
-109 160 161 0
109 -160 161 0
-109 -160 -161 0
161 154 -145 0
-161 154 145 0
161 -154 145 0
-161 -154 -145 0
154 -162 0
161 -162 0
-154 -161 162 0
160 -163 0
109 -163 0
-160 -109 163 0
-162 159 0
-163 159 0
162 163 -159 0
21 15 -165 0
-21 15 165 0
21 -15 165 0
-21 -15 -165 0
110 165 -166 0
-110 165 166 0
110 -165 166 0
-110 -165 -166 0
166 159 -146 0
-166 159 146 0
166 -159 146 0
-166 -159 -146 0
159 -167 0
166 -167 0
-159 -166 167 0
165 -168 0
110 -168 0
-165 -110 168 0
-167 164 0
-168 164 0
167 168 -164 0
21 16 -170 0
-21 16 170 0
21 -16 170 0
-21 -16 -170 0
111 170 -171 0
-111 170 171 0
111 -170 171 0
-111 -170 -171 0
171 164 -147 0
-171 164 147 0
171 -164 147 0
-171 -164 -147 0
164 -172 0
171 -172 0
-164 -171 172 0
170 -173 0
111 -173 0
-170 -111 173 0
-172 169 0
-173 169 0
172 173 -169 0
21 17 -174 0
-21 17 174 0
21 -17 174 0
-21 -17 -174 0
112 174 -175 0
-112 174 175 0
112 -174 175 0
-112 -174 -175 0
175 169 -148 0
-175 169 148 0
175 -169 148 0
-175 -169 -148 0
169 -176 0
175 -176 0
-169 -175 176 0
174 -177 0
112 -177 0
-174 -112 177 0
-176 20 0
-177 20 0
176 177 -20 0
20 12 -185 0
-20 12 185 0
20 -12 185 0
-20 -12 -185 0
2 185 -186 0
-2 185 186 0
2 -185 186 0
-2 -185 -186 0
186 20 -178 0
-186 20 178 0
186 -20 178 0
-186 -20 -178 0
20 -187 0
186 -187 0
-20 -186 187 0
185 -188 0
2 -188 0
-185 -2 188 0
-187 184 0
-188 184 0
187 188 -184 0
20 13 -190 0
-20 13 190 0
20 -13 190 0
-20 -13 -190 0
143 190 -191 0
-143 190 191 0
143 -190 191 0
-143 -190 -191 0
191 184 -179 0
-191 184 179 0
191 -184 179 0
-191 -184 -179 0
184 -192 0
191 -192 0
-184 -191 192 0
190 -193 0
143 -193 0
-190 -143 193 0
-192 189 0
-193 189 0
192 193 -189 0
20 14 -195 0
-20 14 195 0
20 -14 195 0
-20 -14 -195 0
144 195 -196 0
-144 195 196 0
144 -195 196 0
-144 -195 -196 0
196 189 -180 0
-196 189 180 0
196 -189 180 0
-196 -189 -180 0
189 -197 0
196 -197 0
-189 -196 197 0
195 -198 0
144 -198 0
-195 -144 198 0
-197 194 0
-198 194 0
197 198 -194 0
20 15 -200 0
-20 15 200 0
20 -15 200 0
-20 -15 -200 0
145 200 -201 0
-145 200 201 0
145 -200 201 0
-145 -200 -201 0
201 194 -181 0
-201 194 181 0
201 -194 181 0
-201 -194 -181 0
194 -202 0
201 -202 0
-194 -201 202 0
200 -203 0
145 -203 0
-200 -145 203 0
-202 199 0
-203 199 0
202 203 -199 0
20 16 -205 0
-20 16 205 0
20 -16 205 0
-20 -16 -205 0
146 205 -206 0
-146 205 206 0
146 -205 206 0
-146 -205 -206 0
206 199 -182 0
-206 199 182 0
206 -199 182 0
-206 -199 -182 0
199 -207 0
206 -207 0
-199 -206 207 0
205 -208 0
146 -208 0
-205 -146 208 0
-207 204 0
-208 204 0
207 208 -204 0
20 17 -209 0
-20 17 209 0
20 -17 209 0
-20 -17 -209 0
147 209 -210 0
-147 209 210 0
147 -209 210 0
-147 -209 -210 0
210 204 -183 0
-210 204 183 0
210 -204 183 0
-210 -204 -183 0
204 -211 0
210 -211 0
-204 -210 211 0
209 -212 0
147 -212 0
-209 -147 212 0
-211 19 0
-212 19 0
211 212 -19 0
19 12 -214 0
-19 12 214 0
19 -12 214 0
-19 -12 -214 0
1 214 -215 0
-1 214 215 0
1 -214 215 0
-1 -214 -215 0
215 19 -24 0
-215 19 24 0
215 -19 24 0
-215 -19 -24 0
19 -216 0
215 -216 0
-19 -215 216 0
214 -217 0
1 -217 0
-214 -1 217 0
-216 213 0
-217 213 0
216 217 -213 0
19 13 -219 0
-19 13 219 0
19 -13 219 0
-19 -13 -219 0
178 219 -220 0
-178 219 220 0
178 -219 220 0
-178 -219 -220 0
220 213 -25 0
-220 213 25 0
220 -213 25 0
-220 -213 -25 0
213 -221 0
220 -221 0
-213 -220 221 0
219 -222 0
178 -222 0
-219 -178 222 0
-221 218 0
-222 218 0
221 222 -218 0
19 14 -224 0
-19 14 224 0
19 -14 224 0
-19 -14 -224 0
179 224 -225 0
-179 224 225 0
179 -224 225 0
-179 -224 -225 0
225 218 -26 0
-225 218 26 0
225 -218 26 0
-225 -218 -26 0
218 -226 0
225 -226 0
-218 -225 226 0
224 -227 0
179 -227 0
-224 -179 227 0
-226 223 0
-227 223 0
226 227 -223 0
19 15 -229 0
-19 15 229 0
19 -15 229 0
-19 -15 -229 0
180 229 -230 0
-180 229 230 0
180 -229 230 0
-180 -229 -230 0
230 223 -27 0
-230 223 27 0
230 -223 27 0
-230 -223 -27 0
223 -231 0
230 -231 0
-223 -230 231 0
229 -232 0
180 -232 0
-229 -180 232 0
-231 228 0
-232 228 0
231 232 -228 0
19 16 -234 0
-19 16 234 0
19 -16 234 0
-19 -16 -234 0
181 234 -235 0
-181 234 235 0
181 -234 235 0
-181 -234 -235 0
235 228 -28 0
-235 228 28 0
235 -228 28 0
-235 -228 -28 0
228 -236 0
235 -236 0
-228 -235 236 0
234 -237 0
181 -237 0
-234 -181 237 0
-236 233 0
-237 233 0
236 237 -233 0
19 17 -238 0
-19 17 238 0
19 -17 238 0
-19 -17 -238 0
182 238 -239 0
-182 238 239 0
182 -238 239 0
-182 -238 -239 0
239 233 -29 0
-239 233 29 0
239 -233 29 0
-239 -233 -29 0
233 -240 0
239 -240 0
-233 -239 240 0
238 -241 0
182 -241 0
-238 -182 241 0
-240 18 0
-241 18 0
240 241 -18 0
